p wcnf 133 159 160 
1 -21 -36 0 
1 120 38 0 
1 -130 19 0 
1 -131 96 0 
1 36 33 0 
1 -48 -86 0 
1 -10 -68 0 
1 88 -132 0 
1 -58 75 0 
1 -130 44 0 
1 -24 3 0 
1 -43 -98 0 
1 129 -114 0 
1 75 63 0 
1 -7 1 0 
1 -114 -102 0 
1 -53 110 0 
1 87 6 0 
1 -49 -129 0 
1 100 9 0 
1 -77 59 0 
1 -89 -125 0 
1 -65 128 0 
1 -11 -88 0 
1 -61 81 0 
1 -92 -129 0 
1 120 -59 0 
1 128 65 0 
1 130 -3 0 
1 81 -117 0 
1 -71 45 0 
1 -133 -122 0 
1 -1 37 0 
1 -39 -126 0 
1 -48 35 0 
1 49 -70 0 
1 27 -12 0 
1 21 126 0 
1 93 43 0 
1 -73 79 0 
1 -91 -86 0 
1 -94 -53 0 
1 54 -120 0 
1 -91 112 0 
1 -53 59 0 
1 -21 88 0 
1 -7 103 0 
1 38 51 0 
1 97 47 0 
1 -126 -95 0 
1 107 -18 0 
1 -128 96 0 
1 22 -50 0 
1 -50 -38 0 
1 119 -114 0 
1 -13 -42 0 
1 62 -23 0 
1 -15 -16 0 
1 84 -88 0 
1 -28 24 0 
1 -9 -114 0 
1 -11 -27 0 
1 89 30 0 
1 111 132 0 
1 97 -73 0 
1 4 -115 0 
1 85 -115 0 
1 44 -31 0 
1 101 131 0 
1 -4 60 0 
1 130 97 0 
1 18 43 0 
1 -67 -46 0 
1 35 15 0 
1 32 47 0 
1 1 91 0 
1 24 8 0 
1 -5 -17 0 
1 -6 56 0 
1 -61 -13 0 
1 -6 -128 0 
1 10 56 0 
1 -6 96 0 
1 87 -76 0 
1 76 -46 0 
1 -71 92 0 
1 6 -24 0 
1 -59 -96 0 
1 -91 -56 0 
1 -109 -120 0 
1 -111 -128 0 
1 19 121 0 
1 6 -126 0 
1 59 -55 0 
1 -1 18 0 
1 -46 -37 0 
1 -82 29 0 
1 129 70 0 
1 42 -106 0 
1 -10 -56 0 
1 -54 -57 0 
1 18 108 0 
1 -48 36 0 
1 32 93 0 
1 -80 127 0 
1 -5 28 0 
1 121 128 0 
1 63 116 0 
1 -99 -69 0 
1 85 127 0 
1 87 -107 0 
1 -82 8 0 
1 99 118 0 
1 -6 114 0 
1 42 -125 0 
1 -88 12 0 
1 -113 19 0 
1 71 126 0 
1 40 92 0 
1 5 31 0 
1 29 -67 0 
1 -83 32 0 
1 -93 50 0 
1 102 -84 0 
1 -111 72 0 
1 50 34 0 
1 -90 99 0 
1 63 127 0 
1 35 -127 0 
1 41 -79 0 
1 -78 118 0 
1 75 39 0 
1 52 74 0 
1 75 49 0 
1 22 -103 0 
1 43 121 0 
1 -105 -101 0 
1 77 11 0 
1 67 81 0 
1 -133 -43 0 
1 79 -105 0 
1 121 -125 0 
1 76 -129 0 
1 73 -124 0 
1 132 -35 0 
1 53 -112 0 
1 -37 11 0 
1 19 -130 0 
1 -108 -44 0 
1 28 77 0 
1 101 -55 0 
1 -69 52 0 
1 98 126 0 
1 63 -122 0 
1 37 90 0 
1 -49 -19 0 
1 -55 -113 0 
1 -25 -123 0 
1 -96 -126 0 
